n_res = 4;
rc = [ 21, 33, 16, 29 ];
n_tasks = 30;
d = [ 7, 5, 8, 1, 3, 3, 1, 6, 2, 8, 2, 5, 5, 7, 10, 1, 2, 9, 3, 5, 7, 10, 4, 10, 9, 2, 6, 4, 5, 8 ];
rr = [| 21, 21, 21, 21, 21, 21, 21, 21, 21, 21, 21, 21, 21, 21, 21, 21, 21, 21, 21, 21, 21, 21, 21, 21, 21, 21, 21, 21, 21, 21
      | 33, 33, 33, 33, 33, 33, 33, 33, 33, 33, 33, 33, 33, 33, 33, 33, 33, 33, 33, 33, 33, 33, 33, 33, 33, 33, 33, 33, 33, 33
      | 16, 16, 16, 16, 16, 16, 16, 16, 16, 16, 16, 16, 16, 16, 16, 16, 16, 16, 16, 16, 16, 16, 16, 16, 16, 16, 16, 16, 16, 16
      | 29, 29, 29, 29, 29, 29, 29, 29, 29, 29, 29, 29, 29, 29, 29, 29, 29, 29, 29, 29, 29, 29, 29, 29, 29, 29, 29, 29, 29, 29|];
suc = [ { 7, 15, 19 },
       { 6, 8, 20 },
       { 4, 5, 26 },
       { 11 },
       { 9, 20 },
       { 9, 17 },
       { 18, 20 },
       { 10, 14 },
       { 16, 21 },
       { 11, 12, 22 },
       { 24 },
       { 13, 23, 26 },
       { 17, 29, 30 },
       { 15, 18 },
       { 17, 21, 27 },
       { 19 },
       { 28 },
       { 27 },
       { 24, 25 },
       { 29, 30 },
       { 23, 28 },
       { 24, 25, 26 },
       { 25 },
       { 30 },
       { 29 },
       { 27 },
       { 28 },
       {  },
       {  },
       {  } ];
